<number of tasks>
50

<cycle time>
1000

<order strength>
0.598


<task times>
1 488
2 575
3 517
4 455
5 584
6 342
7 474
8 585
9 625
10 516
11 421
12 567
13 307
14 319
15 466
16 561
17 480
18 490
19 549
20 367
21 591
22 515
23 621
24 451
25 515
26 403
27 299
28 504
29 614
30 781
31 673
32 492
33 760
34 361
35 569
36 397
37 587
38 486
39 542
40 644
41 661
42 495
43 327
44 563
45 580
46 429
47 416
48 443
49 474
50 708

<precedence relations>
1,28
2,14
3,14
4,14
5,9
5,10
5,11
5,12
6,7
6,8
6,9
6,11
6,13
6,14
7,39
8,28
9,28
10,14
11,15
11,16
11,17
11,30
12,13
12,14
12,15
12,16
12,17
13,39
14,18
14,19
14,20
14,21
14,22
15,23
15,32
16,22
17,22
18,23
18,24
18,25
18,26
19,23
19,24
19,26
20,30
20,32
20,41
21,23
22,23
22,29
23,28
24,27
24,28
24,29
25,27
25,29
25,31
26,30
26,39
26,40
26,41
27,39
28,31
28,33
28,34
28,35
28,36
28,37
28,38
29,32
31,39
32,39
33,40
33,48
34,47
36,40
36,41
37,48
38,40
38,49
39,42
39,43
39,44
39,45
41,46
41,49
42,48
44,47
44,48
45,49
49,50

<end>
